4 
5  14 27 41 50 
6  05 12 20 27 32 37 42 47 52 57 
7  02 07 12 17 22 27 32 37 42 47 52 57 
8  02 07 12 17 22 27 32 39 47 55 
9  03 10 18 25 32 40 47 55 
10  02 10 17 25 32 40 47 55 
11  02 10 17 25 32 40 47 55 
12  02 10 17 25 32 40 47 55 
13  03 11 18 26 33 41 48 55 
14  03 11 18 26 32 40 47 52 57 
15  02 07 12 17 22 27 32 37 42 47 52 57 
16  02 07 12 17 22 27 32 37 42 47 52 57 
17  02 07 12 17 22 27 32 37 42 47 52 57 
18  02 07 12 17 22 27 36 42 49 55 
19  02 10 17 25 33 40 47 55 
20  02 10 17 24 32 40 47 54 
21  02 10 17 25 32 40 47 56 
22  11 28 42 
23  02 17 36 
0 
